c Generated map
c Size: 8 * 8, weights in range: 1 to 10, walls: True, with ratio 0.05
c dim 8 of 9
c
p sp 64 101
c graph contains 64 nodes and 101 arcs
c
a 1 9 2
a 9 1 2
a 1 2 8
a 2 1 8
a 2 10 9
a 10 2 9
a 2 3 2
a 3 2 2
a 3 11 3
a 11 3 3
a 3 4 2
a 4 3 2
a 4 12 10
a 12 4 10
a 4 5 8
a 5 4 8
a 5 13 1
a 13 5 1
a 5 6 2
a 6 5 2
a 6 14 9
a 14 6 9
a 8 16 8
a 16 8 8
a 9 17 5
a 17 9 5
a 9 10 6
a 10 9 6
a 10 18 10
a 18 10 10
a 10 11 4
a 11 10 4
a 11 19 7
a 19 11 7
a 11 12 10
a 12 11 10
a 12 20 2
a 20 12 2
a 12 13 10
a 13 12 10
a 13 14 1
a 14 13 1
a 14 22 7
a 22 14 7
a 14 15 4
a 15 14 4
a 15 23 7
a 23 15 7
a 15 16 5
a 16 15 5
a 16 24 6
a 24 16 6
a 17 25 3
a 25 17 3
a 17 18 3
a 18 17 3
a 18 26 1
a 26 18 1
a 18 19 2
a 19 18 2
a 19 27 5
a 27 19 5
a 19 20 5
a 20 19 5
a 20 28 5
a 28 20 5
a 22 30 10
a 30 22 10
a 22 23 3
a 23 22 3
a 23 24 1
a 24 23 1
a 24 32 7
a 32 24 7
a 25 33 3
a 33 25 3
a 25 26 5
a 26 25 5
a 26 34 3
a 34 26 3
a 26 27 8
a 27 26 8
a 27 35 5
a 35 27 5
a 27 28 2
a 28 27 2
a 28 36 6
a 36 28 6
a 28 29 2
a 29 28 2
a 29 37 9
a 37 29 9
a 29 30 4
a 30 29 4
a 30 38 2
a 38 30 2
a 32 40 4
a 40 32 4
a 33 41 8
a 41 33 8
a 33 34 4
a 34 33 4
a 34 42 5
a 42 34 5
a 34 35 2
a 35 34 2
a 35 43 6
a 43 35 6
a 35 36 5
a 36 35 5
a 36 44 4
a 44 36 4
a 36 37 5
a 37 36 5
a 37 45 1
a 45 37 1
a 37 38 5
a 38 37 5
a 38 46 9
a 46 38 9
a 38 39 1
a 39 38 1
a 39 47 3
a 47 39 3
a 39 40 10
a 40 39 10
a 40 48 6
a 48 40 6
a 41 49 6
a 49 41 6
a 41 42 7
a 42 41 7
a 42 50 7
a 50 42 7
a 42 43 6
a 43 42 6
a 43 51 4
a 51 43 4
a 43 44 1
a 44 43 1
a 44 52 7
a 52 44 7
a 44 45 4
a 45 44 4
a 45 53 7
a 53 45 7
a 45 46 10
a 46 45 10
a 46 54 1
a 54 46 1
a 46 47 5
a 47 46 5
a 47 55 4
a 55 47 4
a 47 48 10
a 48 47 10
a 48 56 7
a 56 48 7
a 49 57 8
a 57 49 8
a 49 50 1
a 50 49 1
a 50 58 10
a 58 50 10
a 50 51 9
a 51 50 9
a 51 59 6
a 59 51 6
a 51 52 1
a 52 51 1
a 52 60 8
a 60 52 8
a 52 53 8
a 53 52 8
a 53 61 3
a 61 53 3
a 53 54 2
a 54 53 2
a 54 62 9
a 62 54 9
a 54 55 10
a 55 54 10
a 55 63 10
a 63 55 10
a 55 56 9
a 56 55 9
a 56 64 10
a 64 56 10
a 57 58 4
a 58 57 4
a 58 59 8
a 59 58 8
a 59 60 1
a 60 59 1
a 60 61 2
a 61 60 2
a 61 62 4
a 62 61 4
a 62 63 3
a 63 62 3
a 63 64 4
a 64 63 4
